38601 38504 
38533 38605 
40499 36214 
39887 37184 
40226 36670 
38991 38281 
39539 37753 
38464 38707 
39212 38038 
37882 39230 
38541 38575 
38570 38565 
38473 38676 
38362 38803 
40467 36273 
40195 36748 
40313 36342 
40360 36295 
40232 36597 
39313 37947 
39861 37419 
39793 37520 
38820 38479 
36652 39649 
38293 38905 
39181 38099 
38884 38351 
38370 38773 
37851 39291 
37271 39393 
38510 38636 
38399 38763 
38302 38874 
38948 38300 
39496 37772 
40514 35855 
40561 35808 
39724 37622 
39142 38145 
39282 38008 
40125 36922 
39830 37480 
39912 37102 
40057 37023 
39966 37055 
37894 39035 
38845 38397 
37232 39547 
35782 39708 
36747 39624 
36443 39707 
38339 38834 
38136 39013 
37657 39349 
36842 39559 
37366 39368 
38874 38387 
39430 37781 
38777 38498 
39111 38206 
39567 37730 
40293 36382 
40261 36497 
